&control
    calculation='relax',
    pseudo_dir   = '/home/lopb_g/alm_a/work/QuantumEspresso/pseudo',
    title='espresso',
    restart_mode='from_scratch',
    dipfield = .true.,
    tefield  = .true.,
    disk_io  = "none",


 /
 &system
    ibrav= 0,
    nat=n,
    ntyp=4,
    ecutwfc = 20.0,
    ecutrho = 160.0,
    occupations='smearing',
    smearing='mp',
    degauss=0.01,
    nspin = 2,
    starting_magnetization(1) = 0.5,
    starting_magnetization(2) = 0.5,
    starting_magnetization(3) = 0.5,
    edir=3       !!field along z (I'v never tried x or y)
    eamp=0       !!add only dipole field, no additional electric field
    emaxpos=0.45 !!position of the maximum of the added potential
                !!depends on how I've built the supercell
    eopreg =0.10 !!see below

/
&electrons
   electron_maxstep = 300
   conv_thr =  1.0d-4
   mixing_mode='plain'
   mixing_beta = 0.95
   mixing_ndim = 20
   !!scf_must_converge = .false.


/
&ions
   pot_extrapolation='atomic'

/
ATOMIC_SPECIES
 Mg   1.00   Mg.pbe-np-van.UPF   
 O    1.00   O.pbe-van_ak.UPF    
 Pt   1.00   Pt.pbe-nd-rrkjus.UPF
 Au   1.00   Au.pbe-nd-rrkjus.UPF

K_POINTS {gamma}


CELL_PARAMETERS {angstrom}
12.0265    0.0000    0.0000
 0.0000   12.0265    0.0000
 0.0000    0.0000   17.1255


ATOMIC_POSITIONS {angstrom}
Mg      -0.000010247  -0.000010878   2.101283889
Mg      -0.000012293   3.006616689   2.101284234
Mg      -0.000010244   6.013237408   2.101290265
Mg      -0.000009408   9.019859350   2.101282544
Mg       3.006616621  -0.000011123   2.101285215
Mg       3.006614984   3.006616487   2.101293554
Mg       3.006616857   6.013237628   2.101286023
Mg       3.006615709   9.019859402   2.101286514
Mg       6.013236417  -0.000009891   2.101288650
Mg       6.013236480   3.006616723   2.101285089
Mg       6.013236840   6.013236645   2.101289491
Mg       6.013236027   9.019859798   2.101284433
Mg       9.019859530  -0.000009478   2.101281833
Mg       9.019858165   3.006615741   2.101286469
Mg       9.019859614   6.013234412   2.101287360
Mg       9.019859572   9.019859265   2.101292157
O        1.503302109   1.503302543   2.160057150
O        1.503303535   4.509928665   2.160057325
O        1.503305244   7.516548379   2.160055032
O        1.503303870  10.523171836   2.160052300
O        4.509927851   1.503304137   2.160056520
O        4.509927708   4.509928282   2.160056422
O        4.509925178   7.516546929   2.160054059
O        4.509924888  10.523171804   2.160053322
O        7.516547877   1.503305593   2.160054386
O        7.516546632   4.509925058   2.160054130
O        7.516545908   7.516545012   2.160056187
O        7.516546834  10.523175195   2.160053793
O       10.523171321   1.503303845   2.160052016
O       10.523171502   4.509925310   2.160054823
O       10.523174791   7.516546590   2.160055048
O       10.523174838  10.523174343   2.160051464
Mg       1.503304067   1.503303352   0.024655409   0   0   0
Mg       1.503304912   4.509927554   0.024653921   0   0   0
Mg       1.503304193   7.516546062   0.024657973   0   0   0
Mg       1.503303320  10.523173059   0.024659480   0   0   0
Mg       4.509927270   1.503303252   0.024652890   0   0   0
Mg       4.509926933   4.509926957   0.024656650   0   0   0
Mg       4.509926423   7.516546711   0.024656784   0   0   0
Mg       4.509924698  10.523173347   0.024656836   0   0   0
Mg       7.516547636   1.503304360   0.024657901   0   0   0
Mg       7.516546714   4.509926723   0.024656027   0   0   0
Mg       7.516548309   7.516545966   0.024654602   0   0   0
Mg       7.516546980  10.523174674   0.024655295   0   0   0
Mg      10.523172925   1.503303126   0.024659655   0   0   0
Mg      10.523173647   4.509926303   0.024657370   0   0   0
Mg      10.523174242   7.516546481   0.024654627   0   0   0
Mg      10.523173550  10.523173292   0.024661281   0   0   0
O       -0.000011009  -0.000011290  -0.033995178   0   0   0
O       -0.000012190   3.006615679  -0.033996386   0   0   0
O       -0.000009354   6.013237513  -0.033998526   0   0   0
O       -0.000007944   9.019859537  -0.033995514   0   0   0
O        3.006615586  -0.000012530  -0.033997483   0   0   0
O        3.006617593   3.006617152  -0.034001106   0   0   0
O        3.006617468   6.013238799  -0.033997011   0   0   0
O        3.006615095   9.019858147  -0.033998199   0   0   0
O        6.013237137  -0.000009186  -0.033999202   0   0   0
O        6.013238797   3.006616997  -0.033997024   0   0   0
O        6.013235831   6.013235664  -0.033998536   0   0   0
O        6.013234350   9.019858717  -0.033998795   0   0   0
O        9.019859823  -0.000007816  -0.033996238   0   0   0
O        9.019858267   3.006615617  -0.033998004   0   0   0
O        9.019859224   6.013234020  -0.033999329   0   0   0
O        9.019860567   9.019859833  -0.034001869   0   0   0
